p cnf 389 885
169 -14 12 -11 0
-169 14 0
-169 -12 0
-169 11 0
170 -69 67 -66 0
-170 69 0
-170 -67 0
-170 66 0
171 -148 146 -145 0
-171 148 0
-171 -146 0
-171 145 0
172 -54 52 -51 0
-172 54 0
-172 -52 0
-172 51 0
173 -1 0
-173 1 0
174 -41 39 -38 0
-174 41 0
-174 -39 0
-174 38 0
175 -105 103 -102 0
-175 105 0
-175 -103 0
-175 102 0
176 -21 19 -18 0
-176 21 0
-176 -19 0
-176 18 0
177 -126 124 -123 0
-177 126 0
-177 -124 0
-177 123 0
178 -8 7 -6 0
-178 8 0
-178 -7 0
-178 6 0
179 -30 28 -27 0
-179 30 0
-179 -28 0
-179 27 0
180 -86 84 -83 0
-180 86 0
-180 -84 0
-180 83 0
-2 169 170 171 172 173 174 175 176 177 178 179 180 0
2 -169 0
2 -170 0
2 -171 0
2 -172 0
2 -173 0
2 -174 0
2 -175 0
2 -176 0
2 -177 0
2 -178 0
2 -179 0
2 -180 0
181 -19 -18 0
-181 19 0
-181 18 0
182 -39 -38 0
-182 39 0
-182 38 0
183 -84 -83 0
-183 84 0
-183 83 0
184 -3 -2 0
-184 3 0
-184 2 0
185 -7 -6 0
-185 7 0
-185 6 0
186 -52 -51 0
-186 52 0
-186 51 0
187 -103 -102 0
-187 103 0
-187 102 0
188 -28 -27 0
-188 28 0
-188 27 0
189 -12 -11 0
-189 12 0
-189 11 0
190 -146 -145 0
-190 146 0
-190 145 0
191 -124 -123 0
-191 124 0
-191 123 0
192 -67 -66 0
-192 67 0
-192 66 0
-4 181 182 183 184 185 186 187 188 189 190 191 192 0
4 -181 0
4 -182 0
4 -183 0
4 -184 0
4 -185 0
4 -186 0
4 -187 0
4 -188 0
4 -189 0
4 -190 0
4 -191 0
4 -192 0
193 -107 104 -102 0
-193 107 0
-193 -104 0
-193 102 0
194 -5 0
-194 5 0
195 -43 40 -38 0
-195 43 0
-195 -40 0
-195 38 0
196 -23 20 -18 0
-196 23 0
-196 -20 0
-196 18 0
197 -88 85 -83 0
-197 88 0
-197 -85 0
-197 83 0
198 -16 13 -11 0
-198 16 0
-198 -13 0
-198 11 0
199 -32 29 -27 0
-199 32 0
-199 -29 0
-199 27 0
200 -71 68 -66 0
-200 71 0
-200 -68 0
-200 66 0
201 -56 53 -51 0
-201 56 0
-201 -53 0
-201 51 0
202 -150 147 -145 0
-202 150 0
-202 -147 0
-202 145 0
203 -128 125 -123 0
-203 128 0
-203 -125 0
-203 123 0
-6 193 194 195 196 197 198 199 200 201 202 203 0
6 -193 0
6 -194 0
6 -195 0
6 -196 0
6 -197 0
6 -198 0
6 -199 0
6 -200 0
6 -201 0
6 -202 0
6 -203 0
204 -8 0
-204 8 0
205 -7 0
-205 7 0
-9 204 205 0
9 -204 0
9 -205 0
206 -152 149 -145 0
-206 152 0
-206 -149 0
-206 145 0
207 -73 70 -66 0
-207 73 0
-207 -70 0
-207 66 0
208 -90 87 -83 0
-208 90 0
-208 -87 0
-208 83 0
209 -34 31 -27 0
-209 34 0
-209 -31 0
-209 27 0
210 -58 55 -51 0
-210 58 0
-210 -55 0
-210 51 0
211 -109 106 -102 0
-211 109 0
-211 -106 0
-211 102 0
212 -10 0
-212 10 0
213 -130 127 -123 0
-213 130 0
-213 -127 0
-213 123 0
214 -45 42 -38 0
-214 45 0
-214 -42 0
-214 38 0
215 -25 22 -18 0
-215 25 0
-215 -22 0
-215 18 0
-11 206 207 208 209 210 211 212 213 214 215 0
11 -206 0
11 -207 0
11 -208 0
11 -209 0
11 -210 0
11 -211 0
11 -212 0
11 -213 0
11 -214 0
11 -215 0
216 -12 0
-216 12 0
217 -14 0
-217 14 0
-13 216 217 0
13 -216 0
13 -217 0
218 -13 0
-218 13 0
219 -16 0
-219 16 0
-15 218 219 0
15 -218 0
15 -219 0
220 -47 44 -38 0
-220 47 0
-220 -44 0
-220 38 0
221 -132 129 -123 0
-221 132 0
-221 -129 0
-221 123 0
222 -92 89 -83 0
-222 92 0
-222 -89 0
-222 83 0
223 -17 0
-223 17 0
224 -60 57 -51 0
-224 60 0
-224 -57 0
-224 51 0
225 -35 33 -27 0
-225 35 0
-225 -33 0
-225 27 0
226 -111 108 -102 0
-226 111 0
-226 -108 0
-226 102 0
227 -154 151 -145 0
-227 154 0
-227 -151 0
-227 145 0
228 -75 72 -66 0
-228 75 0
-228 -72 0
-228 66 0
-18 220 221 222 223 224 225 226 227 228 0
18 -220 0
18 -221 0
18 -222 0
18 -223 0
18 -224 0
18 -225 0
18 -226 0
18 -227 0
18 -228 0
229 -19 0
-229 19 0
230 -21 0
-230 21 0
-20 229 230 0
20 -229 0
20 -230 0
231 -23 0
-231 23 0
232 -20 0
-232 20 0
-22 231 232 0
22 -231 0
22 -232 0
233 -22 0
-233 22 0
234 -25 0
-234 25 0
-24 233 234 0
24 -233 0
24 -234 0
235 -113 110 -102 0
-235 113 0
-235 -110 0
-235 102 0
236 -48 46 -38 0
-236 48 0
-236 -46 0
-236 38 0
237 -62 59 -51 0
-237 62 0
-237 -59 0
-237 51 0
238 -94 91 -83 0
-238 94 0
-238 -91 0
-238 83 0
239 -77 74 -66 0
-239 77 0
-239 -74 0
-239 66 0
240 -156 153 -145 0
-240 156 0
-240 -153 0
-240 145 0
241 -134 131 -123 0
-241 134 0
-241 -131 0
-241 123 0
242 -26 0
-242 26 0
-27 235 236 237 238 239 240 241 242 0
27 -235 0
27 -236 0
27 -237 0
27 -238 0
27 -239 0
27 -240 0
27 -241 0
27 -242 0
243 -28 0
-243 28 0
244 -30 0
-244 30 0
-29 243 244 0
29 -243 0
29 -244 0
245 -32 0
-245 32 0
246 -29 0
-246 29 0
-31 245 246 0
31 -245 0
31 -246 0
247 -31 0
-247 31 0
248 -34 0
-248 34 0
-33 247 248 0
33 -247 0
33 -248 0
249 -35 0
-249 35 0
250 -33 0
-250 33 0
-36 249 250 0
36 -249 0
36 -250 0
251 -136 133 -123 0
-251 136 0
-251 -133 0
-251 123 0
252 -115 112 -102 0
-252 115 0
-252 -112 0
-252 102 0
253 -96 93 -83 0
-253 96 0
-253 -93 0
-253 83 0
254 -37 0
-254 37 0
255 -158 155 -145 0
-255 158 0
-255 -155 0
-255 145 0
256 -63 61 -51 0
-256 63 0
-256 -61 0
-256 51 0
257 -79 76 -66 0
-257 79 0
-257 -76 0
-257 66 0
-38 251 252 253 254 255 256 257 0
38 -251 0
38 -252 0
38 -253 0
38 -254 0
38 -255 0
38 -256 0
38 -257 0
258 -39 0
-258 39 0
259 -41 0
-259 41 0
-40 258 259 0
40 -258 0
40 -259 0
260 -40 0
-260 40 0
261 -43 0
-261 43 0
-42 260 261 0
42 -260 0
42 -261 0
262 -45 0
-262 45 0
263 -42 0
-263 42 0
-44 262 263 0
44 -262 0
44 -263 0
264 -47 0
-264 47 0
265 -44 0
-265 44 0
-46 264 265 0
46 -264 0
46 -265 0
266 -46 0
-266 46 0
267 -48 0
-267 48 0
-49 266 267 0
49 -266 0
49 -267 0
268 -50 0
-268 50 0
269 -98 95 -83 0
-269 98 0
-269 -95 0
-269 83 0
270 -138 135 -123 0
-270 138 0
-270 -135 0
-270 123 0
271 -80 78 -66 0
-271 80 0
-271 -78 0
-271 66 0
272 -117 114 -102 0
-272 117 0
-272 -114 0
-272 102 0
273 -160 157 -145 0
-273 160 0
-273 -157 0
-273 145 0
-51 268 269 270 271 272 273 0
51 -268 0
51 -269 0
51 -270 0
51 -271 0
51 -272 0
51 -273 0
274 -54 0
-274 54 0
275 -52 0
-275 52 0
-53 274 275 0
53 -274 0
53 -275 0
276 -53 0
-276 53 0
277 -56 0
-277 56 0
-55 276 277 0
55 -276 0
55 -277 0
278 -55 0
-278 55 0
279 -58 0
-279 58 0
-57 278 279 0
57 -278 0
57 -279 0
280 -60 0
-280 60 0
281 -57 0
-281 57 0
-59 280 281 0
59 -280 0
59 -281 0
282 -62 0
-282 62 0
283 -59 0
-283 59 0
-61 282 283 0
61 -282 0
61 -283 0
284 -61 0
-284 61 0
285 -63 0
-285 63 0
-64 284 285 0
64 -284 0
64 -285 0
286 -65 0
-286 65 0
287 -99 97 -83 0
-287 99 0
-287 -97 0
-287 83 0
288 -119 116 -102 0
-288 119 0
-288 -116 0
-288 102 0
289 -162 159 -145 0
-289 162 0
-289 -159 0
-289 145 0
290 -140 137 -123 0
-290 140 0
-290 -137 0
-290 123 0
-66 286 287 288 289 290 0
66 -286 0
66 -287 0
66 -288 0
66 -289 0
66 -290 0
291 -67 0
-291 67 0
292 -69 0
-292 69 0
-68 291 292 0
68 -291 0
68 -292 0
293 -68 0
-293 68 0
294 -71 0
-294 71 0
-70 293 294 0
70 -293 0
70 -294 0
295 -70 0
-295 70 0
296 -73 0
-296 73 0
-72 295 296 0
72 -295 0
72 -296 0
297 -72 0
-297 72 0
298 -75 0
-298 75 0
-74 297 298 0
74 -297 0
74 -298 0
299 -77 0
-299 77 0
300 -74 0
-300 74 0
-76 299 300 0
76 -299 0
76 -300 0
301 -76 0
-301 76 0
302 -79 0
-302 79 0
-78 301 302 0
78 -301 0
78 -302 0
303 -80 0
-303 80 0
304 -78 0
-304 78 0
-81 303 304 0
81 -303 0
81 -304 0
305 -142 139 -123 0
-305 142 0
-305 -139 0
-305 123 0
306 -164 161 -145 0
-306 164 0
-306 -161 0
-306 145 0
307 -82 0
-307 82 0
308 -120 118 -102 0
-308 120 0
-308 -118 0
-308 102 0
-83 305 306 307 308 0
83 -305 0
83 -306 0
83 -307 0
83 -308 0
309 -84 0
-309 84 0
310 -86 0
-310 86 0
-85 309 310 0
85 -309 0
85 -310 0
311 -85 0
-311 85 0
312 -88 0
-312 88 0
-87 311 312 0
87 -311 0
87 -312 0
313 -90 0
-313 90 0
314 -87 0
-314 87 0
-89 313 314 0
89 -313 0
89 -314 0
315 -89 0
-315 89 0
316 -92 0
-316 92 0
-91 315 316 0
91 -315 0
91 -316 0
317 -94 0
-317 94 0
318 -91 0
-318 91 0
-93 317 318 0
93 -317 0
93 -318 0
319 -93 0
-319 93 0
320 -96 0
-320 96 0
-95 319 320 0
95 -319 0
95 -320 0
321 -98 0
-321 98 0
322 -95 0
-322 95 0
-97 321 322 0
97 -321 0
97 -322 0
323 -99 0
-323 99 0
324 -97 0
-324 97 0
-100 323 324 0
100 -323 0
100 -324 0
325 -144 141 -123 0
-325 144 0
-325 -141 0
-325 123 0
326 -166 163 -145 0
-326 166 0
-326 -163 0
-326 145 0
327 -101 0
-327 101 0
-102 325 326 327 0
102 -325 0
102 -326 0
102 -327 0
328 -105 0
-328 105 0
329 -103 0
-329 103 0
-104 328 329 0
104 -328 0
104 -329 0
330 -107 0
-330 107 0
331 -104 0
-331 104 0
-106 330 331 0
106 -330 0
106 -331 0
332 -106 0
-332 106 0
333 -109 0
-333 109 0
-108 332 333 0
108 -332 0
108 -333 0
334 -111 0
-334 111 0
335 -108 0
-335 108 0
-110 334 335 0
110 -334 0
110 -335 0
336 -110 0
-336 110 0
337 -113 0
-337 113 0
-112 336 337 0
112 -336 0
112 -337 0
338 -112 0
-338 112 0
339 -115 0
-339 115 0
-114 338 339 0
114 -338 0
114 -339 0
340 -117 0
-340 117 0
341 -114 0
-341 114 0
-116 340 341 0
116 -340 0
116 -341 0
342 -119 0
-342 119 0
343 -116 0
-343 116 0
-118 342 343 0
118 -342 0
118 -343 0
344 -118 0
-344 118 0
345 -120 0
-345 120 0
-121 344 345 0
121 -344 0
121 -345 0
346 -122 0
-346 122 0
347 -167 165 -145 0
-347 167 0
-347 -165 0
-347 145 0
-123 346 347 0
123 -346 0
123 -347 0
348 -124 0
-348 124 0
349 -126 0
-349 126 0
-125 348 349 0
125 -348 0
125 -349 0
350 -128 0
-350 128 0
351 -125 0
-351 125 0
-127 350 351 0
127 -350 0
127 -351 0
352 -127 0
-352 127 0
353 -130 0
-353 130 0
-129 352 353 0
129 -352 0
129 -353 0
354 -132 0
-354 132 0
355 -129 0
-355 129 0
-131 354 355 0
131 -354 0
131 -355 0
356 -134 0
-356 134 0
357 -131 0
-357 131 0
-133 356 357 0
133 -356 0
133 -357 0
358 -136 0
-358 136 0
359 -133 0
-359 133 0
-135 358 359 0
135 -358 0
135 -359 0
360 -135 0
-360 135 0
361 -138 0
-361 138 0
-137 360 361 0
137 -360 0
137 -361 0
362 -140 0
-362 140 0
363 -137 0
-363 137 0
-139 362 363 0
139 -362 0
139 -363 0
364 -142 0
-364 142 0
365 -139 0
-365 139 0
-141 364 365 0
141 -364 0
141 -365 0
366 -144 0
-366 144 0
367 -141 0
-367 141 0
-143 366 367 0
143 -366 0
143 -367 0
368 -146 0
-368 146 0
369 -148 0
-369 148 0
-147 368 369 0
147 -368 0
147 -369 0
370 -147 0
-370 147 0
371 -150 0
-371 150 0
-149 370 371 0
149 -370 0
149 -371 0
372 -149 0
-372 149 0
373 -152 0
-373 152 0
-151 372 373 0
151 -372 0
151 -373 0
374 -151 0
-374 151 0
375 -154 0
-375 154 0
-153 374 375 0
153 -374 0
153 -375 0
376 -156 0
-376 156 0
377 -153 0
-377 153 0
-155 376 377 0
155 -376 0
155 -377 0
378 -158 0
-378 158 0
379 -155 0
-379 155 0
-157 378 379 0
157 -378 0
157 -379 0
380 -160 0
-380 160 0
381 -157 0
-381 157 0
-159 380 381 0
159 -380 0
159 -381 0
382 -162 0
-382 162 0
383 -159 0
-383 159 0
-161 382 383 0
161 -382 0
161 -383 0
384 -164 0
-384 164 0
385 -161 0
-385 161 0
-163 384 385 0
163 -384 0
163 -385 0
386 -163 0
-386 163 0
387 -166 0
-387 166 0
-165 386 387 0
165 -386 0
165 -387 0
388 -165 0
-388 165 0
389 -167 0
-389 167 0
-168 388 389 0
168 -388 0
168 -389 0
c p weight 1 0.5 0
c p weight -1 0.5 0
c p weight 2 1.0 0
c p weight -2 1.0 0
c p weight 3 1.0 0
c p weight -3 0.0 0
c p weight 4 1.0 0
c p weight -4 0.0 0
c p weight 5 0.5 0
c p weight -5 0.5 0
c p weight 6 1.0 0
c p weight -6 1.0 0
c p weight 7 0.5 0
c p weight -7 0.5 0
c p weight 8 1.0 0
c p weight -8 0.0 0
c p weight 9 1.0 0
c p weight -9 1.0 0
c p weight 10 0.5 0
c p weight -10 0.5 0
c p weight 11 1.0 0
c p weight -11 1.0 0
c p weight 12 0.3333333333333333 0
c p weight -12 0.6666666666666667 0
c p weight 13 1.0 0
c p weight -13 1.0 0
c p weight 14 0.49999999999999994 0
c p weight -14 0.5 0
c p weight 15 1.0 0
c p weight -15 1.0 0
c p weight 16 0.9999999999999997 0
c p weight -16 3.3306690738754696e-16 0
c p weight 17 0.5 0
c p weight -17 0.5 0
c p weight 18 1.0 0
c p weight -18 1.0 0
c p weight 19 0.25 0
c p weight -19 0.75 0
c p weight 20 1.0 0
c p weight -20 1.0 0
c p weight 21 0.3333333333333333 0
c p weight -21 0.6666666666666667 0
c p weight 22 1.0 0
c p weight -22 1.0 0
c p weight 23 0.5 0
c p weight -23 0.5 0
c p weight 24 1.0 0
c p weight -24 1.0 0
c p weight 25 1.0 0
c p weight -25 0.0 0
c p weight 26 0.5 0
c p weight -26 0.5 0
c p weight 27 1.0 0
c p weight -27 1.0 0
c p weight 28 0.2 0
c p weight -28 0.8 0
c p weight 29 1.0 0
c p weight -29 1.0 0
c p weight 30 0.25 0
c p weight -30 0.75 0
c p weight 31 1.0 0
c p weight -31 1.0 0
c p weight 32 0.3333333333333333 0
c p weight -32 0.6666666666666667 0
c p weight 33 1.0 0
c p weight -33 1.0 0
c p weight 34 0.49999999999999994 0
c p weight -34 0.5 0
c p weight 35 0.9999999999999998 0
c p weight -35 2.220446049250313e-16 0
c p weight 36 1.0 0
c p weight -36 1.0 0
c p weight 37 0.5 0
c p weight -37 0.5 0
c p weight 38 1.0 0
c p weight -38 1.0 0
c p weight 39 0.16666666666666666 0
c p weight -39 0.8333333333333334 0
c p weight 40 1.0 0
c p weight -40 1.0 0
c p weight 41 0.19999999999999998 0
c p weight -41 0.8 0
c p weight 42 1.0 0
c p weight -42 1.0 0
c p weight 43 0.24999999999999997 0
c p weight -43 0.75 0
c p weight 44 1.0 0
c p weight -44 1.0 0
c p weight 45 0.33333333333333326 0
c p weight -45 0.6666666666666667 0
c p weight 46 1.0 0
c p weight -46 1.0 0
c p weight 47 0.4999999999999998 0
c p weight -47 0.5000000000000002 0
c p weight 48 0.999999999999999 0
c p weight -48 9.992007221626409e-16 0
c p weight 49 1.0 0
c p weight -49 1.0 0
c p weight 50 0.5 0
c p weight -50 0.5 0
c p weight 51 1.0 0
c p weight -51 1.0 0
c p weight 52 0.14285714285714285 0
c p weight -52 0.8571428571428572 0
c p weight 53 1.0 0
c p weight -53 1.0 0
c p weight 54 0.16666666666666666 0
c p weight -54 0.8333333333333334 0
c p weight 55 1.0 0
c p weight -55 1.0 0
c p weight 56 0.19999999999999996 0
c p weight -56 0.8 0
c p weight 57 1.0 0
c p weight -57 1.0 0
c p weight 58 0.24999999999999992 0
c p weight -58 0.7500000000000001 0
c p weight 59 1.0 0
c p weight -59 1.0 0
c p weight 60 0.33333333333333315 0
c p weight -60 0.6666666666666669 0
c p weight 61 1.0 0
c p weight -61 1.0 0
c p weight 62 0.4999999999999996 0
c p weight -62 0.5000000000000004 0
c p weight 63 0.9999999999999984 0
c p weight -63 1.5543122344752192e-15 0
c p weight 64 1.0 0
c p weight -64 1.0 0
c p weight 65 0.5 0
c p weight -65 0.5 0
c p weight 66 1.0 0
c p weight -66 1.0 0
c p weight 67 0.125 0
c p weight -67 0.875 0
c p weight 68 1.0 0
c p weight -68 1.0 0
c p weight 69 0.14285714285714285 0
c p weight -69 0.8571428571428572 0
c p weight 70 1.0 0
c p weight -70 1.0 0
c p weight 71 0.16666666666666666 0
c p weight -71 0.8333333333333334 0
c p weight 72 1.0 0
c p weight -72 1.0 0
c p weight 73 0.2 0
c p weight -73 0.8 0
c p weight 74 1.0 0
c p weight -74 1.0 0
c p weight 75 0.25 0
c p weight -75 0.75 0
c p weight 76 1.0 0
c p weight -76 1.0 0
c p weight 77 0.3333333333333333 0
c p weight -77 0.6666666666666667 0
c p weight 78 1.0 0
c p weight -78 1.0 0
c p weight 79 0.5 0
c p weight -79 0.5 0
c p weight 80 1.0 0
c p weight -80 0.0 0
c p weight 81 1.0 0
c p weight -81 1.0 0
c p weight 82 0.5 0
c p weight -82 0.5 0
c p weight 83 1.0 0
c p weight -83 1.0 0
c p weight 84 0.1111111111111111 0
c p weight -84 0.8888888888888888 0
c p weight 85 1.0 0
c p weight -85 1.0 0
c p weight 86 0.125 0
c p weight -86 0.875 0
c p weight 87 1.0 0
c p weight -87 1.0 0
c p weight 88 0.14285714285714288 0
c p weight -88 0.8571428571428571 0
c p weight 89 1.0 0
c p weight -89 1.0 0
c p weight 90 0.16666666666666669 0
c p weight -90 0.8333333333333333 0
c p weight 91 1.0 0
c p weight -91 1.0 0
c p weight 92 0.20000000000000007 0
c p weight -92 0.7999999999999999 0
c p weight 93 1.0 0
c p weight -93 1.0 0
c p weight 94 0.2500000000000001 0
c p weight -94 0.7499999999999999 0
c p weight 95 1.0 0
c p weight -95 1.0 0
c p weight 96 0.3333333333333335 0
c p weight -96 0.6666666666666665 0
c p weight 97 1.0 0
c p weight -97 1.0 0
c p weight 98 0.5000000000000003 0
c p weight -98 0.49999999999999967 0
c p weight 99 1.0 0
c p weight -99 0.0 0
c p weight 100 1.0 0
c p weight -100 1.0 0
c p weight 101 0.5 0
c p weight -101 0.5 0
c p weight 102 1.0 0
c p weight -102 1.0 0
c p weight 103 0.1 0
c p weight -103 0.9 0
c p weight 104 1.0 0
c p weight -104 1.0 0
c p weight 105 0.11111111111111112 0
c p weight -105 0.8888888888888888 0
c p weight 106 1.0 0
c p weight -106 1.0 0
c p weight 107 0.125 0
c p weight -107 0.875 0
c p weight 108 1.0 0
c p weight -108 1.0 0
c p weight 109 0.14285714285714285 0
c p weight -109 0.8571428571428572 0
c p weight 110 1.0 0
c p weight -110 1.0 0
c p weight 111 0.16666666666666666 0
c p weight -111 0.8333333333333334 0
c p weight 112 1.0 0
c p weight -112 1.0 0
c p weight 113 0.19999999999999996 0
c p weight -113 0.8 0
c p weight 114 1.0 0
c p weight -114 1.0 0
c p weight 115 0.24999999999999994 0
c p weight -115 0.75 0
c p weight 116 1.0 0
c p weight -116 1.0 0
c p weight 117 0.3333333333333332 0
c p weight -117 0.6666666666666667 0
c p weight 118 1.0 0
c p weight -118 1.0 0
c p weight 119 0.49999999999999967 0
c p weight -119 0.5000000000000003 0
c p weight 120 0.9999999999999987 0
c p weight -120 1.3322676295501878e-15 0
c p weight 121 1.0 0
c p weight -121 1.0 0
c p weight 122 0.5 0
c p weight -122 0.5 0
c p weight 123 1.0 0
c p weight -123 1.0 0
c p weight 124 0.09090909090909091 0
c p weight -124 0.9090909090909091 0
c p weight 125 1.0 0
c p weight -125 1.0 0
c p weight 126 0.1 0
c p weight -126 0.9 0
c p weight 127 1.0 0
c p weight -127 1.0 0
c p weight 128 0.11111111111111112 0
c p weight -128 0.8888888888888888 0
c p weight 129 1.0 0
c p weight -129 1.0 0
c p weight 130 0.12500000000000003 0
c p weight -130 0.875 0
c p weight 131 1.0 0
c p weight -131 1.0 0
c p weight 132 0.14285714285714288 0
c p weight -132 0.8571428571428571 0
c p weight 133 1.0 0
c p weight -133 1.0 0
c p weight 134 0.1666666666666667 0
c p weight -134 0.8333333333333333 0
c p weight 135 1.0 0
c p weight -135 1.0 0
c p weight 136 0.2000000000000001 0
c p weight -136 0.7999999999999999 0
c p weight 137 1.0 0
c p weight -137 1.0 0
c p weight 138 0.25000000000000017 0
c p weight -138 0.7499999999999998 0
c p weight 139 1.0 0
c p weight -139 1.0 0
c p weight 140 0.33333333333333365 0
c p weight -140 0.6666666666666663 0
c p weight 141 1.0 0
c p weight -141 1.0 0
c p weight 142 0.5000000000000007 0
c p weight -142 0.49999999999999933 0
c p weight 143 1.0 0
c p weight -143 1.0 0
c p weight 144 1.0 0
c p weight -144 0.0 0
c p weight 145 0.5 0
c p weight -145 0.5 0
c p weight 146 0.08333333333333333 0
c p weight -146 0.9166666666666666 0
c p weight 147 1.0 0
c p weight -147 1.0 0
c p weight 148 0.09090909090909091 0
c p weight -148 0.9090909090909091 0
c p weight 149 1.0 0
c p weight -149 1.0 0
c p weight 150 0.1 0
c p weight -150 0.9 0
c p weight 151 1.0 0
c p weight -151 1.0 0
c p weight 152 0.11111111111111112 0
c p weight -152 0.8888888888888888 0
c p weight 153 1.0 0
c p weight -153 1.0 0
c p weight 154 0.12500000000000003 0
c p weight -154 0.875 0
c p weight 155 1.0 0
c p weight -155 1.0 0
c p weight 156 0.1428571428571429 0
c p weight -156 0.8571428571428571 0
c p weight 157 1.0 0
c p weight -157 1.0 0
c p weight 158 0.1666666666666667 0
c p weight -158 0.8333333333333333 0
c p weight 159 1.0 0
c p weight -159 1.0 0
c p weight 160 0.20000000000000007 0
c p weight -160 0.7999999999999999 0
c p weight 161 1.0 0
c p weight -161 1.0 0
c p weight 162 0.2500000000000001 0
c p weight -162 0.7499999999999999 0
c p weight 163 1.0 0
c p weight -163 1.0 0
c p weight 164 0.3333333333333335 0
c p weight -164 0.6666666666666665 0
c p weight 165 1.0 0
c p weight -165 1.0 0
c p weight 166 0.5000000000000002 0
c p weight -166 0.4999999999999998 0
c p weight 167 1.0 0
c p weight -167 0.0 0
c p weight 168 1.0 0
c p weight -168 1.0 0
c p weight 169 1.0 0
c p weight -169 1.0 0
c p weight 170 1.0 0
c p weight -170 1.0 0
c p weight 171 1.0 0
c p weight -171 1.0 0
c p weight 172 1.0 0
c p weight -172 1.0 0
c p weight 173 1.0 0
c p weight -173 1.0 0
c p weight 174 1.0 0
c p weight -174 1.0 0
c p weight 175 1.0 0
c p weight -175 1.0 0
c p weight 176 1.0 0
c p weight -176 1.0 0
c p weight 177 1.0 0
c p weight -177 1.0 0
c p weight 178 1.0 0
c p weight -178 1.0 0
c p weight 179 1.0 0
c p weight -179 1.0 0
c p weight 180 1.0 0
c p weight -180 1.0 0
c p weight 181 1.0 0
c p weight -181 1.0 0
c p weight 182 1.0 0
c p weight -182 1.0 0
c p weight 183 1.0 0
c p weight -183 1.0 0
c p weight 184 1.0 0
c p weight -184 1.0 0
c p weight 185 1.0 0
c p weight -185 1.0 0
c p weight 186 1.0 0
c p weight -186 1.0 0
c p weight 187 1.0 0
c p weight -187 1.0 0
c p weight 188 1.0 0
c p weight -188 1.0 0
c p weight 189 1.0 0
c p weight -189 1.0 0
c p weight 190 1.0 0
c p weight -190 1.0 0
c p weight 191 1.0 0
c p weight -191 1.0 0
c p weight 192 1.0 0
c p weight -192 1.0 0
c p weight 193 1.0 0
c p weight -193 1.0 0
c p weight 194 1.0 0
c p weight -194 1.0 0
c p weight 195 1.0 0
c p weight -195 1.0 0
c p weight 196 1.0 0
c p weight -196 1.0 0
c p weight 197 1.0 0
c p weight -197 1.0 0
c p weight 198 1.0 0
c p weight -198 1.0 0
c p weight 199 1.0 0
c p weight -199 1.0 0
c p weight 200 1.0 0
c p weight -200 1.0 0
c p weight 201 1.0 0
c p weight -201 1.0 0
c p weight 202 1.0 0
c p weight -202 1.0 0
c p weight 203 1.0 0
c p weight -203 1.0 0
c p weight 204 1.0 0
c p weight -204 1.0 0
c p weight 205 1.0 0
c p weight -205 1.0 0
c p weight 206 1.0 0
c p weight -206 1.0 0
c p weight 207 1.0 0
c p weight -207 1.0 0
c p weight 208 1.0 0
c p weight -208 1.0 0
c p weight 209 1.0 0
c p weight -209 1.0 0
c p weight 210 1.0 0
c p weight -210 1.0 0
c p weight 211 1.0 0
c p weight -211 1.0 0
c p weight 212 1.0 0
c p weight -212 1.0 0
c p weight 213 1.0 0
c p weight -213 1.0 0
c p weight 214 1.0 0
c p weight -214 1.0 0
c p weight 215 1.0 0
c p weight -215 1.0 0
c p weight 216 1.0 0
c p weight -216 1.0 0
c p weight 217 1.0 0
c p weight -217 1.0 0
c p weight 218 1.0 0
c p weight -218 1.0 0
c p weight 219 1.0 0
c p weight -219 1.0 0
c p weight 220 1.0 0
c p weight -220 1.0 0
c p weight 221 1.0 0
c p weight -221 1.0 0
c p weight 222 1.0 0
c p weight -222 1.0 0
c p weight 223 1.0 0
c p weight -223 1.0 0
c p weight 224 1.0 0
c p weight -224 1.0 0
c p weight 225 1.0 0
c p weight -225 1.0 0
c p weight 226 1.0 0
c p weight -226 1.0 0
c p weight 227 1.0 0
c p weight -227 1.0 0
c p weight 228 1.0 0
c p weight -228 1.0 0
c p weight 229 1.0 0
c p weight -229 1.0 0
c p weight 230 1.0 0
c p weight -230 1.0 0
c p weight 231 1.0 0
c p weight -231 1.0 0
c p weight 232 1.0 0
c p weight -232 1.0 0
c p weight 233 1.0 0
c p weight -233 1.0 0
c p weight 234 1.0 0
c p weight -234 1.0 0
c p weight 235 1.0 0
c p weight -235 1.0 0
c p weight 236 1.0 0
c p weight -236 1.0 0
c p weight 237 1.0 0
c p weight -237 1.0 0
c p weight 238 1.0 0
c p weight -238 1.0 0
c p weight 239 1.0 0
c p weight -239 1.0 0
c p weight 240 1.0 0
c p weight -240 1.0 0
c p weight 241 1.0 0
c p weight -241 1.0 0
c p weight 242 1.0 0
c p weight -242 1.0 0
c p weight 243 1.0 0
c p weight -243 1.0 0
c p weight 244 1.0 0
c p weight -244 1.0 0
c p weight 245 1.0 0
c p weight -245 1.0 0
c p weight 246 1.0 0
c p weight -246 1.0 0
c p weight 247 1.0 0
c p weight -247 1.0 0
c p weight 248 1.0 0
c p weight -248 1.0 0
c p weight 249 1.0 0
c p weight -249 1.0 0
c p weight 250 1.0 0
c p weight -250 1.0 0
c p weight 251 1.0 0
c p weight -251 1.0 0
c p weight 252 1.0 0
c p weight -252 1.0 0
c p weight 253 1.0 0
c p weight -253 1.0 0
c p weight 254 1.0 0
c p weight -254 1.0 0
c p weight 255 1.0 0
c p weight -255 1.0 0
c p weight 256 1.0 0
c p weight -256 1.0 0
c p weight 257 1.0 0
c p weight -257 1.0 0
c p weight 258 1.0 0
c p weight -258 1.0 0
c p weight 259 1.0 0
c p weight -259 1.0 0
c p weight 260 1.0 0
c p weight -260 1.0 0
c p weight 261 1.0 0
c p weight -261 1.0 0
c p weight 262 1.0 0
c p weight -262 1.0 0
c p weight 263 1.0 0
c p weight -263 1.0 0
c p weight 264 1.0 0
c p weight -264 1.0 0
c p weight 265 1.0 0
c p weight -265 1.0 0
c p weight 266 1.0 0
c p weight -266 1.0 0
c p weight 267 1.0 0
c p weight -267 1.0 0
c p weight 268 1.0 0
c p weight -268 1.0 0
c p weight 269 1.0 0
c p weight -269 1.0 0
c p weight 270 1.0 0
c p weight -270 1.0 0
c p weight 271 1.0 0
c p weight -271 1.0 0
c p weight 272 1.0 0
c p weight -272 1.0 0
c p weight 273 1.0 0
c p weight -273 1.0 0
c p weight 274 1.0 0
c p weight -274 1.0 0
c p weight 275 1.0 0
c p weight -275 1.0 0
c p weight 276 1.0 0
c p weight -276 1.0 0
c p weight 277 1.0 0
c p weight -277 1.0 0
c p weight 278 1.0 0
c p weight -278 1.0 0
c p weight 279 1.0 0
c p weight -279 1.0 0
c p weight 280 1.0 0
c p weight -280 1.0 0
c p weight 281 1.0 0
c p weight -281 1.0 0
c p weight 282 1.0 0
c p weight -282 1.0 0
c p weight 283 1.0 0
c p weight -283 1.0 0
c p weight 284 1.0 0
c p weight -284 1.0 0
c p weight 285 1.0 0
c p weight -285 1.0 0
c p weight 286 1.0 0
c p weight -286 1.0 0
c p weight 287 1.0 0
c p weight -287 1.0 0
c p weight 288 1.0 0
c p weight -288 1.0 0
c p weight 289 1.0 0
c p weight -289 1.0 0
c p weight 290 1.0 0
c p weight -290 1.0 0
c p weight 291 1.0 0
c p weight -291 1.0 0
c p weight 292 1.0 0
c p weight -292 1.0 0
c p weight 293 1.0 0
c p weight -293 1.0 0
c p weight 294 1.0 0
c p weight -294 1.0 0
c p weight 295 1.0 0
c p weight -295 1.0 0
c p weight 296 1.0 0
c p weight -296 1.0 0
c p weight 297 1.0 0
c p weight -297 1.0 0
c p weight 298 1.0 0
c p weight -298 1.0 0
c p weight 299 1.0 0
c p weight -299 1.0 0
c p weight 300 1.0 0
c p weight -300 1.0 0
c p weight 301 1.0 0
c p weight -301 1.0 0
c p weight 302 1.0 0
c p weight -302 1.0 0
c p weight 303 1.0 0
c p weight -303 1.0 0
c p weight 304 1.0 0
c p weight -304 1.0 0
c p weight 305 1.0 0
c p weight -305 1.0 0
c p weight 306 1.0 0
c p weight -306 1.0 0
c p weight 307 1.0 0
c p weight -307 1.0 0
c p weight 308 1.0 0
c p weight -308 1.0 0
c p weight 309 1.0 0
c p weight -309 1.0 0
c p weight 310 1.0 0
c p weight -310 1.0 0
c p weight 311 1.0 0
c p weight -311 1.0 0
c p weight 312 1.0 0
c p weight -312 1.0 0
c p weight 313 1.0 0
c p weight -313 1.0 0
c p weight 314 1.0 0
c p weight -314 1.0 0
c p weight 315 1.0 0
c p weight -315 1.0 0
c p weight 316 1.0 0
c p weight -316 1.0 0
c p weight 317 1.0 0
c p weight -317 1.0 0
c p weight 318 1.0 0
c p weight -318 1.0 0
c p weight 319 1.0 0
c p weight -319 1.0 0
c p weight 320 1.0 0
c p weight -320 1.0 0
c p weight 321 1.0 0
c p weight -321 1.0 0
c p weight 322 1.0 0
c p weight -322 1.0 0
c p weight 323 1.0 0
c p weight -323 1.0 0
c p weight 324 1.0 0
c p weight -324 1.0 0
c p weight 325 1.0 0
c p weight -325 1.0 0
c p weight 326 1.0 0
c p weight -326 1.0 0
c p weight 327 1.0 0
c p weight -327 1.0 0
c p weight 328 1.0 0
c p weight -328 1.0 0
c p weight 329 1.0 0
c p weight -329 1.0 0
c p weight 330 1.0 0
c p weight -330 1.0 0
c p weight 331 1.0 0
c p weight -331 1.0 0
c p weight 332 1.0 0
c p weight -332 1.0 0
c p weight 333 1.0 0
c p weight -333 1.0 0
c p weight 334 1.0 0
c p weight -334 1.0 0
c p weight 335 1.0 0
c p weight -335 1.0 0
c p weight 336 1.0 0
c p weight -336 1.0 0
c p weight 337 1.0 0
c p weight -337 1.0 0
c p weight 338 1.0 0
c p weight -338 1.0 0
c p weight 339 1.0 0
c p weight -339 1.0 0
c p weight 340 1.0 0
c p weight -340 1.0 0
c p weight 341 1.0 0
c p weight -341 1.0 0
c p weight 342 1.0 0
c p weight -342 1.0 0
c p weight 343 1.0 0
c p weight -343 1.0 0
c p weight 344 1.0 0
c p weight -344 1.0 0
c p weight 345 1.0 0
c p weight -345 1.0 0
c p weight 346 1.0 0
c p weight -346 1.0 0
c p weight 347 1.0 0
c p weight -347 1.0 0
c p weight 348 1.0 0
c p weight -348 1.0 0
c p weight 349 1.0 0
c p weight -349 1.0 0
c p weight 350 1.0 0
c p weight -350 1.0 0
c p weight 351 1.0 0
c p weight -351 1.0 0
c p weight 352 1.0 0
c p weight -352 1.0 0
c p weight 353 1.0 0
c p weight -353 1.0 0
c p weight 354 1.0 0
c p weight -354 1.0 0
c p weight 355 1.0 0
c p weight -355 1.0 0
c p weight 356 1.0 0
c p weight -356 1.0 0
c p weight 357 1.0 0
c p weight -357 1.0 0
c p weight 358 1.0 0
c p weight -358 1.0 0
c p weight 359 1.0 0
c p weight -359 1.0 0
c p weight 360 1.0 0
c p weight -360 1.0 0
c p weight 361 1.0 0
c p weight -361 1.0 0
c p weight 362 1.0 0
c p weight -362 1.0 0
c p weight 363 1.0 0
c p weight -363 1.0 0
c p weight 364 1.0 0
c p weight -364 1.0 0
c p weight 365 1.0 0
c p weight -365 1.0 0
c p weight 366 1.0 0
c p weight -366 1.0 0
c p weight 367 1.0 0
c p weight -367 1.0 0
c p weight 368 1.0 0
c p weight -368 1.0 0
c p weight 369 1.0 0
c p weight -369 1.0 0
c p weight 370 1.0 0
c p weight -370 1.0 0
c p weight 371 1.0 0
c p weight -371 1.0 0
c p weight 372 1.0 0
c p weight -372 1.0 0
c p weight 373 1.0 0
c p weight -373 1.0 0
c p weight 374 1.0 0
c p weight -374 1.0 0
c p weight 375 1.0 0
c p weight -375 1.0 0
c p weight 376 1.0 0
c p weight -376 1.0 0
c p weight 377 1.0 0
c p weight -377 1.0 0
c p weight 378 1.0 0
c p weight -378 1.0 0
c p weight 379 1.0 0
c p weight -379 1.0 0
c p weight 380 1.0 0
c p weight -380 1.0 0
c p weight 381 1.0 0
c p weight -381 1.0 0
c p weight 382 1.0 0
c p weight -382 1.0 0
c p weight 383 1.0 0
c p weight -383 1.0 0
c p weight 384 1.0 0
c p weight -384 1.0 0
c p weight 385 1.0 0
c p weight -385 1.0 0
c p weight 386 1.0 0
c p weight -386 1.0 0
c p weight 387 1.0 0
c p weight -387 1.0 0
c p weight 388 1.0 0
c p weight -388 1.0 0
c p weight 389 1.0 0
c p weight -389 1.0 0
c p semirings aspmc.semirings.probabilistic 0
c p quantify 1 2 3 4 5 6 7 8 9 10 11 12 13 14 15 16 17 18 19 20 21 22 23 24 25 26 27 28 29 30 31 32 33 34 35 36 37 38 39 40 41 42 43 44 45 46 47 48 49 50 51 52 53 54 55 56 57 58 59 60 61 62 63 64 65 66 67 68 69 70 71 72 73 74 75 76 77 78 79 80 81 82 83 84 85 86 87 88 89 90 91 92 93 94 95 96 97 98 99 100 101 102 103 104 105 106 107 108 109 110 111 112 113 114 115 116 117 118 119 120 121 122 123 124 125 126 127 128 129 130 131 132 133 134 135 136 137 138 139 140 141 142 143 144 145 146 147 148 149 150 151 152 153 154 155 156 157 158 159 160 161 162 163 164 165 166 167 168 169 170 171 172 173 174 175 176 177 178 179 180 181 182 183 184 185 186 187 188 189 190 191 192 193 194 195 196 197 198 199 200 201 202 203 204 205 206 207 208 209 210 211 212 213 214 215 216 217 218 219 220 221 222 223 224 225 226 227 228 229 230 231 232 233 234 235 236 237 238 239 240 241 242 243 244 245 246 247 248 249 250 251 252 253 254 255 256 257 258 259 260 261 262 263 264 265 266 267 268 269 270 271 272 273 274 275 276 277 278 279 280 281 282 283 284 285 286 287 288 289 290 291 292 293 294 295 296 297 298 299 300 301 302 303 304 305 306 307 308 309 310 311 312 313 314 315 316 317 318 319 320 321 322 323 324 325 326 327 328 329 330 331 332 333 334 335 336 337 338 339 340 341 342 343 344 345 346 347 348 349 350 351 352 353 354 355 356 357 358 359 360 361 362 363 364 365 366 367 368 369 370 371 372 373 374 375 376 377 378 379 380 381 382 383 384 385 386 387 388 389 0
c p auxilliary 2 6 9 11 13 15 18 20 22 24 27 29 31 33 36 38 40 42 44 46 49 51 53 55 57 59 61 64 66 68 70 72 74 76 78 81 83 85 87 89 91 93 95 97 100 102 104 106 108 110 112 114 116 118 121 123 125 127 129 131 133 135 137 139 141 143 147 149 151 153 155 157 159 161 163 165 168 169 170 171 172 173 174 175 176 177 178 179 180 181 182 183 184 185 186 187 188 189 190 191 192 193 194 195 196 197 198 199 200 201 202 203 204 205 206 207 208 209 210 211 212 213 214 215 216 217 218 219 220 221 222 223 224 225 226 227 228 229 230 231 232 233 234 235 236 237 238 239 240 241 242 243 244 245 246 247 248 249 250 251 252 253 254 255 256 257 258 259 260 261 262 263 264 265 266 267 268 269 270 271 272 273 274 275 276 277 278 279 280 281 282 283 284 285 286 287 288 289 290 291 292 293 294 295 296 297 298 299 300 301 302 303 304 305 306 307 308 309 310 311 312 313 314 315 316 317 318 319 320 321 322 323 324 325 326 327 328 329 330 331 332 333 334 335 336 337 338 339 340 341 342 343 344 345 346 347 348 349 350 351 352 353 354 355 356 357 358 359 360 361 362 363 364 365 366 367 368 369 370 371 372 373 374 375 376 377 378 379 380 381 382 383 384 385 386 387 388 389 0
